
        $ From http://www.csplib.org/Problems/prob009/data/helmut.pdf
        $ Problem number 193
        $ Sequence length : 25
        language ESSENCE' 1.0
        letting sizemaster be 580
        letting sizes be sequence(11,12,16,17,29,32,39,41,53,55,59,60,68,70,81,84,92,124,125,128,129,156,171,280,300)
        